# Objective value = 95602
x66 1
x67 0
x68 0
x69 0
x70 0
x71 1
x72 0
x73 0
x74 1
x75 1
x76 0
x77 0
x78 1
x79 1
x80 1
x81 0
x82 0
x83 1
x84 1
x85 1
x86 1
x87 0
x88 0
x89 1
x90 1
x91 1
x92 1
x93 1
x94 1
x95 1
x96 0
x97 0
x98 0
x99 0
x100 0
x101 0
x102 0
x103 0
x104 1
x105 1
x106 1
x107 1
x108 1
x109 1
x110 0
x111 0
x112 0
x113 1
x114 1
x115 1
x116 1
x117 1
x118 1
x119 0
x120 1
x121 1
x122 1
x123 0
x124 0
x125 0
x126 0
x127 0
x128 0
x129 1
x130 0
x131 0
x132 0
x133 0
x134 1
x135 1
x136 1
x137 1
x138 1
x139 1
x140 0
x141 1
x142 1
x143 0
x144 0
x145 0
x146 1
x147 1
x148 1
x149 1
x150 1
x151 1
x152 0
x153 1
x154 1
x155 0
x156 1
x157 1
x158 1
x159 0
x160 0
x161 0
x162 0
x163 0
x164 0
x165 1
x166 0
x167 0
x168 1
x169 0
x170 0
x171 0
x172 0
x173 1
x174 1
x175 1
x176 1
x177 1
x178 1
x179 0
x180 1
x181 1
x182 0
x183 1
x184 1
x185 0
x186 0
x187 0
x188 1
x189 1
x190 1
x191 1
x192 1
x193 1
x194 0
x195 1
x196 1
x197 0
x198 1
x199 1
x200 0
x201 1
x202 0
x203 0
x204 1
x205 1
x206 1
x207 1
x208 1
x209 0
x210 0
x211 1
x212 1
x213 1
x214 1
x215 0
x216 1
x217 1
x218 1
x219 0
x220 0
x221 0
x222 1
x223 0
x224 0
x225 0
x226 0
x227 0
x228 1
x229 1
x230 1
x231 1
x232 1
x233 1
x234 1
x235 0
x236 0
x237 1
x238 1
x239 1
x240 0
x241 1
x242 1
x243 1
x244 1
x245 0
x246 1
x247 1
x248 0
x249 0
x250 0
x251 1
x252 0
x253 1
x254 0
x255 0
x256 1
x257 0
x258 0
x259 0
x260 1
x261 1
x262 1
x263 0
x264 0
x265 1
x266 1
x267 1
x268 0
x269 1
x270 1
x271 0
x272 0
x273 1
x274 1
x275 1
x276 0
x277 1
x278 1
x279 1
x280 1
x281 0
x282 1
x283 1
x284 0
x285 1
x286 0
x287 0
x288 1
x289 1
x290 1
x291 0
x292 1
x293 1
x294 1
x295 0
x296 1
x297 1
x298 0
x299 1
x300 1
x301 0
x302 1
x303 1
x304 1
x305 1
x306 0
x307 1
x308 1
x309 1
x310 0
x311 1
x312 1
x313 0
x314 1
x315 1
x316 1
x317 0
x318 1
x319 1
x320 1
x321 1
x322 0
x323 1
x324 1
x325 1
x326 0
x327 1
x328 1
x329 0
x330 1
x331 1
x332 1
x333 1
x334 1
x335 0
x336 1
x337 0
x338 0
x339 1
x340 0
x341 0
x342 0
x343 1
x344 0
x345 0
x346 1
x347 0
x348 0
x349 0
x350 0
x351 0
x352 1
x353 1
x354 0
x355 0
x356 1
x357 0
x358 0
x359 0
x360 0
x361 1
x362 0
x363 0
x364 1
x365 0
x366 0
x367 0
x368 0
x369 0
x370 1
x371 0
x372 1
x373 1
x374 1
x375 0
x376 1
x377 1
x378 1
x379 1
x380 0
x381 1
x382 1
x383 0
x384 1
x385 1
x386 1
x387 1
x388 1
x389 0
x390 0
x391 0
x392 1
x393 1
x394 1
x395 0
x396 1
x397 1
x398 1
x399 1
x400 0
x401 1
x402 1
x403 0
x404 1
x405 1
x406 1
x407 1
x408 1
x409 0
x410 0
x411 1
x412 0
x413 1
x414 0
x415 1
x416 0
x417 1
x418 1
x419 1
x420 1
x421 0
x422 1
x423 1
x424 0
x425 1
x426 1
x427 1
x428 1
x429 1
x430 0
x431 0
x432 1
x433 1
x434 0
x435 0
x436 1
x437 1
x438 1
x439 1
x440 1
x441 1
x442 0
x443 1
x444 1
x445 0
x446 0
x447 1
x448 1
x449 1
x450 1
x451 1
x452 1
x453 0
x454 1
x455 0
x456 1
x457 0
x458 0
x459 1
x460 1
x461 1
x462 1
x463 1
x464 1
x465 0
x466 1
x467 1
x468 1
x469 1
x470 1
x471 1
x472 0
x473 0
x474 0
x475 1
x476 0
x477 0
x478 1
x479 0
x480 0
x481 0
x482 0
x483 0
x484 1
x485 1
x486 0
x487 0
x488 0
x489 1
x490 0
x491 0
x492 1
x493 0
x494 0
x495 0
x496 0
x497 0
x498 1
x499 0
x500 1
x501 1
x502 1
x503 1
x504 0
x505 1
x506 1
x507 0
x508 1
x509 1
x510 1
x511 1
x512 1
x513 0
x514 0
x515 0
x516 1
x517 1
x518 1
x519 1
x520 0
x521 0
x522 1
x523 0
x524 1
x525 1
x526 1
x527 1
x528 1
x529 0
x530 0
x531 1
x532 0
x533 1
x534 1
x535 1
x536 1
x537 0
x538 1
x539 1
x540 0
x541 1
x542 1
x543 1
x544 1
x545 1
x546 0
x547 0
x548 1
x549 1
x550 0
x551 1
x552 1
x553 0
x554 1
x555 1
x556 1
x557 1
x558 1
x559 0
x560 0
x561 1
x562 1
x563 1
x564 0
x565 0
x566 1
x567 1
x568 1
x569 1
x570 0
x571 0
x572 1
x573 0
x574 1
x575 0
x576 0
x577 0
x578 1
x579 0
x580 0
x581 0
x582 0
x583 1
x584 1
x585 0
x586 0
x587 0
x588 0
x589 0
x590 1
x591 1
x592 0
x593 1
x594 1
x595 1
x596 1
x597 1
x598 0
x599 1
x600 1
x601 1
x602 1
x603 0
x604 0
x605 1
x606 1
x607 1
x608 1
x609 0
x610 0
x611 1
x612 1
x613 0
x614 1
x615 1
x616 1
x617 1
x618 1
x619 0
x620 1
x621 1
x622 1
x623 1
x624 0
x625 0
x626 1
x627 1
x628 1
x629 1
x630 0
x631 1
x632 0
x633 1
x634 1
x635 0
x636 1
x637 1
x638 1
x639 0
x640 1
x641 1
x642 1
x643 1
x644 1
x645 1
x646 0
x647 0
x648 1
x649 1
x650 1
x651 1
x652 0
x653 1
x654 1
x655 0
x656 1
x657 1
x658 0
x659 1
x660 1
x661 1
x662 0
x663 1
x664 1
x665 1
x666 1
x667 1
x668 1
x669 0
x670 0
x671 1
x672 1
x673 1
x674 1
x675 0
x676 1
x677 1
x678 1
x679 1
x680 1
x681 0
x682 1
x683 0
x684 0
x685 0
x686 1
x687 0
x688 0
x689 0
x690 0
x691 0
x692 0
x693 1
x694 1
x695 0
x696 0
x697 0
x698 0
x699 1
x700 0
x701 0
x702 0
x703 0
x704 0
x705 1
x706 1
x707 0
x708 1
x709 1
x710 0
x711 0
x712 1
x713 1
x714 1
x715 1
x716 1
x717 1
x718 0
x719 0
x720 1
x721 1
x722 1
x723 1
x724 0
x725 1
x726 1
x727 1
x728 1
x729 0
x730 0
x731 0
x732 1
x733 1
x734 1
x735 1
x736 1
x737 1
x738 0
x739 1
x740 1
x741 1
x742 1
x743 1
x744 0
x745 1
x746 1
x747 1
x748 1
x749 0
x750 0
x751 0
x752 0
x753 0
x754 0
x755 1
x756 0
x757 1
x758 0
x759 0
x760 0
x761 1
x762 1
x763 0
x764 0
x765 0
x766 0
x767 1
x768 1
x769 1
x770 1
x771 1
x772 1
x773 0
x774 1
x775 1
x776 1
x777 1
x778 1
x779 0
x780 1
x781 0
x782 1
x783 0
x784 0
x785 0
x786 1
x787 1
x788 1
x789 0
x790 1
x791 1
x792 0
x793 1
x794 1
x795 1
x796 1
x797 1
x798 0
x799 1
x800 1
x801 1
x802 0
x803 1
x804 0
x805 0
x806 1
x807 1
x808 1
x809 0
x810 1
x811 1
x812 0
x813 1
x814 1
x815 0
x816 1
x817 1
x818 1
x819 1
x820 1
x821 1
x822 0
x823 1
x824 1
x825 0
x826 1
x827 1
x828 1
x829 1
x830 0
x831 1
x832 1
x833 0
x834 1
x835 1
x836 0
x837 1
x838 1
x839 1
x840 0
x841 1
x842 1
x843 0
x844 1
x845 1
x846 1
x847 1
x848 0
x849 0
x850 0
x851 0
x852 1
x853 1
x854 0
x855 1
x856 0
x857 0
x858 1
x859 0
x860 0
x861 0
x862 0
x863 1
x864 0
x865 1
x866 0
x867 0
x868 0
x869 0
x870 0
x871 1
x872 1
x873 1
x874 1
x875 0
x876 1
x877 1
x878 0
x879 1
x880 1
x881 0
x882 1
x883 1
x884 1
x885 1
x886 1
x887 1
x888 0
x889 1
x890 1
x891 1
x892 1
x893 0
x894 1
x895 0
x896 0
x897 1
x898 0
x899 0
x900 0
x901 0
x902 0
x903 1
x904 1
x905 0
x906 1
x907 0
x908 1
x909 0
x910 0
x911 0
x912 1
x913 0
x914 0
x915 0
x916 0
x917 1
x918 0
x919 0
x920 1
x921 1
x922 0
x923 1
x924 0
x925 1
x926 1
x927 1
x928 0
x929 1
x930 1
x931 1
x932 1
x933 0
x934 1
x935 1
x936 1
x937 0
x938 1
x939 1
x940 1
x941 1
x942 0
x943 1
x944 0
x945 0
x946 1
x947 1
x948 0
x949 1
x950 1
x951 1
x952 1
x953 1
x954 0
x955 1
x956 1
x957 1
x958 1
x959 0
x960 1
x961 1
x962 1
x963 0
x964 1
x965 1
x966 1
x967 1
x968 0
x969 1
x970 0
x971 1
x972 0
x973 1
x974 1
x975 0
x976 1
x977 1
x978 1
x979 1
x980 1
x981 0
x982 1
x983 0
x984 1
x985 1
x986 0
x987 1
x988 1
x989 1
x990 0
x991 1
x992 1
x993 1
x994 1
x995 0
x996 1
x997 0
x998 1
x999 1
x1000 0
x1001 1
x1002 1
x1003 0
x1004 1
x1005 1
x1006 1
x1007 0
x1008 1
x1009 1
x1010 1
x1011 1
x1012 0
x1013 1
x1014 1
x1015 0
x1016 1
x1017 1
x1018 0
x1019 1
x1020 1
x1021 1
x1022 1
x1023 0
x1024 1
x1025 0
x1026 1
x1027 1
x1028 1
x1029 0
x1030 1
x1031 1
x1032 0
x1033 1
x1034 1
x1035 1
x1036 0
x1037 1
x1038 1
x1039 1
x1040 1
x1041 1
x1042 1
x1043 1
x1044 0
x1045 1
x1046 1
x1047 0
x1048 1
x1049 1
x1050 1
x1051 1
x1052 0
x1053 1
x1054 0
x1055 1
x1056 1
x1057 1
x1058 1
x1059 0
x1060 0
x1061 1
x1062 0
x1063 1
x1064 1
x1065 1
x1066 0
x1067 1
x1068 1
x1069 1
x1070 1
x1071 1
x1072 1
x1073 1
x1074 0
x1075 1
x1076 1
x1077 0
x1078 1
x1079 1
x1080 1
x1081 1
x1082 0
x1083 1
x1084 0
x1085 1
x1086 1
x1087 1
x1088 1
x1089 1
x1090 1
x1091 0
x1092 0
x1093 1
x1094 0
x1095 0
x1096 1
x1097 1
x1098 0
x1099 0
x1100 0
x1101 1
x1102 0
x1103 0
x1104 0
x1105 1
x1106 0
x1107 0
x1108 1
x1109 0
x1110 0
x1111 0
x1112 0
x1113 1
x1114 0
x1115 1
x1116 0
x1117 0
x1118 0
x1119 0
x1120 0
x1121 0
x1 1
x2 1
x3 0
x4 0
x5 0
x6 0
x7 0
x8 0
x9 1
x10 0
x11 0
x12 1
x13 0
x14 0
x15 1
x16 0
x17 0
x18 0
x19 0
x20 1
x21 0
x22 0
x23 1
x24 0
x25 0
x26 0
x27 0
x28 0
x29 1
x30 1
x31 0
x32 0
x33 0
x34 0
x35 0
x36 0
x37 1
x38 1
x39 0
x40 0
x41 0
x42 0
x43 1
x44 0
x45 0
x46 0
x47 0
x48 1
x49 0
x50 0
x51 1
x52 0
x53 0
x54 0
x55 0
x56 1
x57 0
x58 1
x59 0
x60 0
x61 0
x62 0
x63 0
x64 0
x65 1
